14° run output:
{
    "Function": "ClusterB300.tsp",
    "Problem dimension": [
        67,
        189,
        72,
        234,
        57,
        6,
        137,
        19,
        127,
        53,
        55,
        235,
        229,
        56,
        231,
        82,
        122,
        239,
        98,
        3,
        70,
        182,
        120,
        228,
        188,
        26,
        166,
        32,
        216,
        248,
        29,
        275,
        103,
        204,
        81,
        212,
        100,
        62,
        176,
        44,
        97,
        263,
        68,
        199,
        279,
        36,
        200,
        236,
        251,
        125,
        21,
        253,
        47,
        201,
        269,
        132,
        240,
        174,
        283,
        80,
        20,
        191,
        220,
        107,
        237,
        119,
        267,
        215,
        230,
        196,
        185,
        268,
        146,
        156,
        94,
        292,
        273,
        163,
        43,
        111,
        225,
        151,
        31,
        2,
        257,
        252,
        177,
        95,
        192,
        1,
        89,
        23,
        84,
        164,
        30,
        299,
        271,
        88,
        38,
        259,
        157,
        65,
        15,
        276,
        148,
        190,
        213,
        9,
        139,
        219,
        41,
        165,
        39,
        73,
        288,
        224,
        40,
        249,
        109,
        14,
        247,
        60,
        214,
        42,
        223,
        226,
        74,
        18,
        101,
        105,
        126,
        35,
        78,
        270,
        17,
        209,
        183,
        5,
        118,
        158,
        93,
        290,
        280,
        71,
        195,
        46,
        16,
        296,
        245,
        242,
        193,
        265,
        232,
        175,
        222,
        52,
        160,
        37,
        104,
        25,
        134,
        144,
        168,
        264,
        117,
        172,
        76,
        211,
        140,
        113,
        138,
        227,
        250,
        48,
        194,
        173,
        155,
        171,
        274,
        128,
        256,
        0,
        115,
        294,
        130,
        167,
        198,
        210,
        49,
        13,
        244,
        59,
        218,
        61,
        141,
        90,
        233,
        4,
        186,
        179,
        221,
        277,
        77,
        8,
        147,
        87,
        266,
        123,
        112,
        286,
        102,
        12,
        202,
        208,
        153,
        206,
        96,
        54,
        75,
        51,
        246,
        34,
        64,
        161,
        285,
        243,
        136,
        7,
        203,
        108,
        178,
        169,
        110,
        133,
        241,
        159,
        150,
        281,
        85,
        291,
        69,
        152,
        258,
        92,
        154,
        149,
        282,
        131,
        28,
        205,
        162,
        295,
        181,
        272,
        83,
        10,
        187,
        293,
        180,
        142,
        262,
        297,
        66,
        184,
        287,
        255,
        284,
        238,
        298,
        217,
        254,
        261,
        129,
        124,
        58,
        79,
        45,
        27,
        197,
        106,
        86,
        207,
        91,
        50,
        22,
        289,
        116,
        11,
        33,
        121,
        135,
        63,
        24,
        260,
        170,
        143,
        145,
        114,
        278,
        99
    ],
    "Global Optimum": 0,
    "Algorithm": "Genetic algorithm",
    "Parameters": {
        "population": 30,
        "offspring": 30,
        "mutation probability": 0.0033333333333333335,
        "crossover probability": 0.9
    },
    "Fitness": 246131,
    "Solution": [
        67,
        189,
        72,
        234,
        57,
        6,
        137,
        19,
        127,
        53,
        55,
        235,
        229,
        56,
        231,
        82,
        122,
        239,
        98,
        3,
        70,
        182,
        120,
        228,
        188,
        26,
        166,
        32,
        216,
        248,
        29,
        275,
        103,
        204,
        81,
        212,
        100,
        62,
        176,
        44,
        97,
        263,
        68,
        199,
        279,
        36,
        200,
        236,
        251,
        125,
        21,
        253,
        47,
        201,
        269,
        132,
        240,
        174,
        283,
        80,
        20,
        191,
        220,
        107,
        237,
        119,
        267,
        215,
        230,
        196,
        185,
        268,
        146,
        156,
        94,
        292,
        273,
        163,
        43,
        111,
        225,
        151,
        31,
        2,
        257,
        252,
        177,
        95,
        192,
        1,
        89,
        23,
        84,
        164,
        30,
        299,
        271,
        88,
        38,
        259,
        157,
        65,
        15,
        276,
        148,
        190,
        213,
        9,
        139,
        219,
        41,
        165,
        39,
        73,
        288,
        224,
        40,
        249,
        109,
        14,
        247,
        60,
        214,
        42,
        223,
        226,
        74,
        18,
        101,
        105,
        126,
        35,
        78,
        270,
        17,
        209,
        183,
        5,
        118,
        158,
        93,
        290,
        280,
        71,
        195,
        46,
        16,
        296,
        245,
        242,
        193,
        265,
        232,
        175,
        222,
        52,
        160,
        37,
        104,
        25,
        134,
        144,
        168,
        264,
        117,
        172,
        76,
        211,
        140,
        113,
        138,
        227,
        250,
        48,
        194,
        173,
        155,
        171,
        274,
        128,
        256,
        0,
        115,
        294,
        130,
        167,
        198,
        210,
        49,
        13,
        244,
        59,
        218,
        61,
        141,
        90,
        233,
        4,
        186,
        179,
        221,
        277,
        77,
        8,
        147,
        87,
        266,
        123,
        112,
        286,
        102,
        12,
        202,
        208,
        153,
        206,
        96,
        54,
        75,
        51,
        246,
        34,
        64,
        161,
        285,
        243,
        136,
        7,
        203,
        108,
        178,
        169,
        110,
        133,
        241,
        159,
        150,
        281,
        85,
        291,
        69,
        152,
        258,
        92,
        154,
        149,
        282,
        131,
        28,
        205,
        162,
        295,
        181,
        272,
        83,
        10,
        187,
        293,
        180,
        142,
        262,
        297,
        66,
        184,
        287,
        255,
        284,
        238,
        298,
        217,
        254,
        261,
        129,
        124,
        58,
        79,
        45,
        27,
        197,
        106,
        86,
        207,
        91,
        50,
        22,
        289,
        116,
        11,
        33,
        121,
        135,
        63,
        24,
        260,
        170,
        143,
        145,
        114,
        278,
        99
    ],
    "Nb of functions evaluations": 400020,
    "Computational time in seconds": 746.6157865524292,
    "Stopping criterion in evaluations": 400000
}